38
36
37
18
17
16
15
12
9
6
2
75
76
1
23
4
3
7
8
74
14
13
11
10
5
20
19
31
30
29
28
42
54
53
52
55
56
57
63
64
73
72
71
65
66
51
49
50
67
70
68
69
47
48
44
33
34
40
41
60
59
61
62
58
43
26
25
21
22
24
46
45
27
32
35
39
38
